(declare-fun v4 () (_ BitVec 12))
(declare-fun v7 () (_ BitVec 15))
(declare-fun v17 () (_ BitVec 10))
(declare-fun v19 () (_ BitVec 9))
(assert
(let (($e13 (_ bv34 8)))
(let (($e21 (_ bv0 2)))
(let (($e29 (_ bv0 3)))
(let (($e259 (concat $e29  v4)))
(let (($e260      (= $e259 v7)         ))
(let (($e403 (concat $e21 $e13)))
(let (($e404 (bvand        $e403         v17 )))
(let (($e405 (concat v19  $e260)))
(let (($e406 (bvand $e405 $e404)))
             (ite        $e260  $e406 $e404)
                                                                                                                                                                                                                                                                                                                                                                                                                                                                                                                                                                                                                                                                                                                                                                                                                                                                                                                                                                                                                                                                                                                                                                                                                                                                                                                                                                                                                                                                                                                                                                                                                                                                                                                                                                                                                                                                                                                                                                                                                                                                                                                                                                                                                                                                                                                                                                                                                                                                                                                                                                                                                                                                                                                                                                                                                                                                                                                                                                                                                                                                                                                                                                                                                                                                                                                                                                                                                                                                                                                                                                                                                                                                                                                                                                                                                                                                                                                                                                                                                                                                                                                                                                                                                                                                                                                                                                                                                                                                                                                                                                                                                                                                                                                                                                                                                                                                                                                                                                                                                                                                                                                                                                                                                                                                                                                                                                                                                                                                                                                                                                                                                                                                                                                                                                                                                                                                                                                                                                                                                                                                                                                                                                                                                                                                                                                                                                                                                                                                                                                                                                                                                                                                                                                                                                                                                                                                                                                                                                                                                                                                                                                                                                             ))))                                                                                                                                              ))                                                                                                                                                                                                           )       )       )            )
